Route 1: 91 93 7 35 28 12 57 2 25 38 36 58 101 78 54 82 70 42 14 99 83
Route 2: 21 117 108 97 85 95 120 62 11 39 32 53 89 51
Route 3: 37 116 49 87 66 75 111 107 8 29 20 76 104 18 19 45 100 10 16 84 59
Route 4: 88 73 103 112 63 41 115 9 4 46 79 40 43 50 110 65 114 77 44 3 13
Route 5: 55 72 113 71 56 94 17 81 33 92 22 80 24 15 34 119 31 68 26 30 74
Route 6: 98 47 67 109 118 27 6 48 102 106 105 64 52 90 86 69 61 96 5 23 60
Cost 15188.03
